
Gurobi 11.0.3 (linux64) logging started Thu Nov 21 19:41:57 2024

Set parameter LogFile to value "/home/yihong/Coding/OR_SUC/SUC_results_bigM100000_thread4/case24_ieee_rts_theta0.1_epsilon0.025_gurobi_seed80000_num_gen100_N_WDR100_load_scaling_factor1_exact_T16quadra_cost.txt"
Set parameter TimeLimit to value 3600
Gurobi Optimizer version 11.0.3 build v11.0.3rc0 (linux64 - "Ubuntu 20.04.6 LTS")

CPU model: AMD EPYC 7532 32-Core Processor, instruction set [SSE2|AVX|AVX2]
Thread count: 64 physical cores, 128 logical processors, using up to 4 threads

Optimize a model with 34563 rows, 20041 columns and 474826 nonzeros
Model fingerprint: 0x028973f4
Model has 1600 quadratic constraints
Variable types: 18341 continuous, 1700 integer (1700 binary)
Coefficient statistics:
  Matrix range     [3e-04, 1e+05]
  QMatrix range    [2e-03, 8e-03]
  QLMatrix range   [6e-02, 6e+01]
  Objective range  [1e+00, 1e+00]
  Bounds range     [1e+00, 1e+00]
  RHS range        [1e+00, 1e+05]
Presolve removed 27996 rows and 8720 columns
Presolve time: 0.17s
Presolved: 6567 rows, 11321 columns, 42683 nonzeros
Presolved model has 1600 quadratic constraint(s)
Variable types: 9661 continuous, 1660 integer (1660 binary)

Root relaxation: objective 2.276237e+04, 4947 iterations, 0.10 seconds (0.14 work units)

    Nodes    |    Current Node    |     Objective Bounds      |     Work
 Expl Unexpl |  Obj  Depth IntInf | Incumbent    BestBd   Gap | It/Node Time

     0     0 22762.3696    0   19          - 22762.3696      -     -    0s
     0     0 227415.469    0  538          - 227415.469      -     -    0s
     0     0 228457.161    0  538          - 228457.161      -     -    0s
     0     0 415526.336    0  512          - 415526.336      -     -    0s
     0     0 415565.465    0  295          - 415565.465      -     -    0s
     0     0 415873.658    0  164          - 415873.658      -     -    0s
     0     0 415915.257    0  164          - 415915.257      -     -    0s
     0     0 416203.814    0  155          - 416203.814      -     -    1s
     0     0 416205.078    0  155          - 416205.078      -     -    1s
     0     2 416215.656    0  155          - 416215.656      -     -    1s
H  342   238                    416862.34816 416457.618  0.10%  19.9    2s
*  342   238             100    416862.34816 416457.618  0.10%  19.9    2s

Cutting planes:
  Gomory: 15
  Implied bound: 278
  MIR: 104
  Flow cover: 308
  RLT: 11

Explored 362 nodes (21229 simplex iterations) in 3.20 seconds (3.86 work units)
Thread count was 4 (of 128 available processors)

Solution count 2: 416862 416862 

Optimal solution found (tolerance 1.00e-03)
Warning: max constraint violation (1.0305e-06) exceeds tolerance
Best objective 4.168623481585e+05, best bound 4.164576180390e+05, gap 0.0971%
